32      4       
20      12      11      13      
0       0       0       0       0       3       2       3       4       
10      14      12      8       13      3       8       6       5       
5       18      1       11      8       2       6       5       
4       12      10      11      13      2       8       5       
8       20      9       11      6       1       7       
7       16      9       8       10      1       7       
4       20      12      11      13      2       10      9       
5       12      11      11      4       2       10      9       
4       20      12      3       5       3       14      13      11      
5       7       4       11      4       3       14      12      11      
4       20      12      11      8       2       16      15      
10      20      1       8       13      2       16      15      
6       10      11      11      13      2       16      15      
3       10      7       10      10      1       15      
7       8       1       8       6       2       20      17      
2       11      10      5       13      2       20      18      
7       15      7       8       3       1       18      
3       10      6       4       13      1       19      
5       18      12      11      13      2       22      21      
6       3       12      10      13      1       21      
3       20      12      8       13      2       24      23      
1       13      12      11      13      1       23      
1       8       9       7       13      2       28      26      
1       19      6       5       6       1       25      
7       20      12      11      11      2       28      27      
6       13      12      11      12      1       27      
2       20      12      5       4       2       30      29      
5       20      12      3       1       2       30      29      
2       20      8       4       13      1       31      
8       13      4       1       13      1       31      
2       20      12      11      13      1       32      
0       0       0       0       0       0       
